p wcnf 123 62 63 
1 -82 17 0 
1 -70 107 0 
1 120 -108 0 
1 -9 82 0 
1 74 -25 0 
1 60 38 0 
1 -122 -24 0 
1 -82 -13 0 
1 -13 67 0 
1 51 39 0 
1 36 -4 0 
1 -54 -98 0 
1 -35 -94 0 
1 -25 13 0 
1 46 21 0 
1 -117 -64 0 
1 114 -22 0 
1 -43 18 0 
1 14 101 0 
1 36 -88 0 
1 5 28 0 
1 100 40 0 
1 65 69 0 
1 -41 44 0 
1 -3 -36 0 
1 -122 -7 0 
1 94 64 0 
1 -118 -47 0 
1 68 -115 0 
1 -89 70 0 
1 -14 25 0 
1 -21 -104 0 
1 123 1 0 
1 57 -47 0 
1 33 -98 0 
1 14 -96 0 
1 -26 -98 0 
1 39 -67 0 
1 -82 -20 0 
1 -24 99 0 
1 -6 25 0 
1 -96 -104 0 
1 105 -73 0 
1 62 52 0 
1 -99 27 0 
1 -43 -38 0 
1 38 -71 0 
1 32 -69 0 
1 -81 -35 0 
1 97 65 0 
1 -7 17 0 
1 110 -22 0 
1 -56 -45 0 
1 -115 -86 0 
1 -73 -25 0 
1 -111 -105 0 
1 101 -10 0 
1 108 122 0 
1 102 -85 0 
1 82 117 0 
1 -38 -96 0 
1 40 -108 0 
